benchmark/results/graph__10-1000-0.10-04_7/graph__10-1000-0.10-04_7_QuintonOs_Benders_primal_sub.lp
\ This file has been generated by DOcplex
\ ENCODING=ISO-8859-1
\Problem name: Quinton Bounded Benders_primal_sub

Maximize
 obj: tau
Subject To
 c1: tau <= 0.002118644068
 c2: y_a0_proc_1 + y_a0_proc_2 + y_a0_proc_3 - tau = 0
 c3: y_a0_proc_1 <= 0
 c4: y_a0_proc_2 <= 1
 c5: y_a0_proc_3 <= 0
 c6: tau <= 0.001058201058
 c7: y_a1_proc_0 + y_a1_proc_1 + y_a1_proc_2 - tau = 0
 c8: y_a1_proc_0 <= 1
 c9: y_a1_proc_1 <= 0
 c10: y_a1_proc_2 <= 0
 c11: tau <= 0.001187648456
 c12: y_a2_proc_1 + y_a2_proc_2 + y_a2_proc_3 - tau = 0
 c13: y_a2_proc_1 <= 0
 c14: y_a2_proc_2 <= 0
 c15: y_a2_proc_3 <= 1
 c16: tau <= 0.001261034048
 c17: y_a3_proc_0 + y_a3_proc_1 + y_a3_proc_2 - tau = 0
 c18: y_a3_proc_0 <= 1
 c19: y_a3_proc_1 <= 0
 c20: y_a3_proc_2 <= 0
 c21: tau <= 0.001196172249
 c22: y_a4_proc_0 + y_a4_proc_1 + y_a4_proc_2 + y_a4_proc_3 - tau = 0
 c23: y_a4_proc_0 <= 1
 c24: y_a4_proc_1 <= 0
 c25: y_a4_proc_2 <= 0
 c26: y_a4_proc_3 <= 0
 c27: tau <= 0.001207729469
 c28: y_a5_proc_0 + y_a5_proc_2 + y_a5_proc_3 - tau = 0
 c29: y_a5_proc_0 <= 0
 c30: y_a5_proc_2 <= 1
 c31: y_a5_proc_3 <= 0
 c32: tau <= 0.001414427157
 c33: y_a6_proc_0 + y_a6_proc_1 + y_a6_proc_2 + y_a6_proc_3 - tau = 0
 c34: y_a6_proc_0 <= 0
 c35: y_a6_proc_1 <= 0
 c36: y_a6_proc_2 <= 0
 c37: y_a6_proc_3 <= 1
 c38: tau <= 0.001730103806
 c39: y_a7_proc_0 + y_a7_proc_2 + y_a7_proc_3 - tau = 0
 c40: y_a7_proc_0 <= 1
 c41: y_a7_proc_2 <= 0
 c42: y_a7_proc_3 <= 0
 c43: tau <= 0.001246882793
 c44: y_a8_proc_0 + y_a8_proc_2 + y_a8_proc_3 - tau = 0
 c45: y_a8_proc_0 <= 0
 c46: y_a8_proc_2 <= 0
 c47: y_a8_proc_3 <= 1
 c48: tau <= 0.001126126126
 c49: y_a9_proc_0 + y_a9_proc_1 + y_a9_proc_2 + y_a9_proc_3 - tau = 0
 c50: y_a9_proc_0 <= 0
 c51: y_a9_proc_1 <= 0
 c52: y_a9_proc_2 <= 1
 c53: y_a9_proc_3 <= 0
 c54: u_a1 - u_a0 - 726 y_a0_proc_1 - 472 y_a0_proc_2 - 990 y_a0_proc_3 >= -1
 c55: u_a1 - u_a2 - 1208 y_a2_proc_1 - 892 y_a2_proc_2 - 842 y_a2_proc_3 >= 0
 c56: u_a3 - u_a0 - 726 y_a0_proc_1 - 472 y_a0_proc_2 - 990 y_a0_proc_3 >= 0
 c57: u_a0 - u_a4 - 836 y_a4_proc_0 - 1102 y_a4_proc_1 - 1153 y_a4_proc_2
      - 1188 y_a4_proc_3 >= 0
 c58: u_a4 - u_a5 - 1184 y_a5_proc_0 - 828 y_a5_proc_2 - 1171 y_a5_proc_3 >= 0
 c59: u_a6 - u_a1 - 945 y_a1_proc_0 - 1139 y_a1_proc_1 - 1010 y_a1_proc_2 >= 0
 c60: u_a1 - u_a7 - 578 y_a7_proc_0 - 1139 y_a7_proc_2 - 1214 y_a7_proc_3 >= 0
 c61: u_a8 - u_a5 - 1184 y_a5_proc_0 - 828 y_a5_proc_2 - 1171 y_a5_proc_3 >= 0
 c62: u_a9 - u_a8 - 1091 y_a8_proc_0 - 1240 y_a8_proc_2 - 802 y_a8_proc_3 >= 0
 c63: u_a4 - u_a6 - 1132 y_a6_proc_0 - 915 y_a6_proc_1 - 1223 y_a6_proc_2
      - 707 y_a6_proc_3 >= 0
 c64: - 1184 y_a5_proc_0 - 828 y_a5_proc_2 - 1171 y_a5_proc_3 >= -1
 c65: u_a2 - u_a3 - 793 y_a3_proc_0 - 1289 y_a3_proc_1 - 1139 y_a3_proc_2 >= -1
 c66: u_a7 - u_a3 - 793 y_a3_proc_0 - 1289 y_a3_proc_1 - 1139 y_a3_proc_2 >= -1
 c67: u_a2 - u_a1 - 945 y_a1_proc_0 - 1139 y_a1_proc_1 - 1010 y_a1_proc_2 >= -1
 c68: - 1091 y_a8_proc_0 - 1240 y_a8_proc_2 - 802 y_a8_proc_3 >= -1
 c69: u_a9 - u_a0 - 726 y_a0_proc_1 - 472 y_a0_proc_2 - 990 y_a0_proc_3 >= -1
 c70: u_a7 - u_a9 - 982 y_a9_proc_0 - 982 y_a9_proc_1 - 888 y_a9_proc_2
      - 806 y_a9_proc_3 >= 0
 c71: u_a3 - u_a2 - 1208 y_a2_proc_1 - 892 y_a2_proc_2 - 842 y_a2_proc_3 >= 0
 c72: u_a1 - u_a0 - 472 y_a0_proc_2 >= -1303
 c73: u_a1 - u_a0 - 726 y_a0_proc_1 >= -2592
 c74: u_a0 - u_a1 - 1010 y_a1_proc_2 >= -1276
 c75: u_a0 - u_a1 - 1139 y_a1_proc_1 >= -2565
 c76: u_a2 - u_a0 - 472 y_a0_proc_2 >= -1303
 c77: u_a2 - u_a0 - 990 y_a0_proc_3 >= -1303
 c78: u_a2 - u_a0 - 726 y_a0_proc_1 >= -2592
 c79: u_a0 - u_a2 - 892 y_a2_proc_2 >= -1276
 c80: u_a0 - u_a2 - 842 y_a2_proc_3 >= -1276
 c81: u_a0 - u_a2 - 1208 y_a2_proc_1 >= -2565
 c82: u_a3 - u_a0 - 472 y_a0_proc_2 >= -1276
 c83: u_a3 - u_a0 - 726 y_a0_proc_1 >= -2565
 c84: u_a0 - u_a3 - 1139 y_a3_proc_2 >= -1303
 c85: u_a0 - u_a3 - 1289 y_a3_proc_1 >= -2592
 c86: u_a4 - u_a0 - 472 y_a0_proc_2 >= -1303
 c87: u_a4 - u_a0 - 990 y_a0_proc_3 >= -2592
 c88: u_a4 - u_a0 - 726 y_a0_proc_1 >= -2592
 c89: u_a0 - u_a4 - 1153 y_a4_proc_2 >= -1276
 c90: u_a0 - u_a4 - 1188 y_a4_proc_3 >= -2565
 c91: u_a0 - u_a4 - 1102 y_a4_proc_1 >= -2565
 c92: u_a5 - u_a0 - 472 y_a0_proc_2 >= -2
 c93: u_a5 - u_a0 - 990 y_a0_proc_3 >= -2580
 c94: u_a0 - u_a5 - 828 y_a5_proc_2 >= 1
 c95: u_a0 - u_a5 - 1171 y_a5_proc_3 >= -2577
 c96: u_a6 - u_a0 - 472 y_a0_proc_2 >= -1303
 c97: u_a6 - u_a0 - 990 y_a0_proc_3 >= -1303
 c98: u_a6 - u_a0 - 726 y_a0_proc_1 >= -2592
 c99: u_a0 - u_a6 - 1223 y_a6_proc_2 >= -1276
 c100: u_a0 - u_a6 - 707 y_a6_proc_3 >= -1276
 c101: u_a0 - u_a6 - 915 y_a6_proc_1 >= -2565
 c102: u_a7 - u_a0 - 472 y_a0_proc_2 >= -1303
 c103: u_a7 - u_a0 - 990 y_a0_proc_3 >= -2592
 c104: u_a0 - u_a7 - 1139 y_a7_proc_2 >= -1276
 c105: u_a0 - u_a7 - 1214 y_a7_proc_3 >= -2565
 c106: u_a8 - u_a0 - 472 y_a0_proc_2 >= -1276
 c107: u_a8 - u_a0 - 990 y_a0_proc_3 >= -1276
 c108: u_a0 - u_a8 - 1240 y_a8_proc_2 >= -1303
 c109: u_a0 - u_a8 - 802 y_a8_proc_3 >= -1303
 c110: u_a9 - u_a0 - 472 y_a0_proc_2 >= -1
 c111: u_a9 - u_a0 - 990 y_a0_proc_3 >= -2579
 c112: u_a9 - u_a0 - 726 y_a0_proc_1 >= -2579
 c113: u_a0 - u_a9 - 888 y_a9_proc_2 >= 0
 c114: u_a0 - u_a9 - 806 y_a9_proc_3 >= -2578
 c115: u_a0 - u_a9 - 982 y_a9_proc_1 >= -2578
 c116: u_a2 - u_a1 - 1010 y_a1_proc_2 >= -2592
 c117: u_a2 - u_a1 - 1139 y_a1_proc_1 >= -2592
 c118: u_a1 - u_a2 - 892 y_a2_proc_2 >= -2565
 c119: u_a1 - u_a2 - 1208 y_a2_proc_1 >= -2565
 c120: u_a3 - u_a1 - 1010 y_a1_proc_2 >= -2578
 c121: u_a3 - u_a1 - 945 y_a1_proc_0 >= 0
 c122: u_a3 - u_a1 - 1139 y_a1_proc_1 >= -2578
 c123: u_a1 - u_a3 - 1139 y_a3_proc_2 >= -2579
 c124: u_a1 - u_a3 - 793 y_a3_proc_0 >= -1
 c125: u_a1 - u_a3 - 1289 y_a3_proc_1 >= -2579
 c126: u_a4 - u_a1 - 1010 y_a1_proc_2 >= -2578
 c127: u_a4 - u_a1 - 945 y_a1_proc_0 >= 0
 c128: u_a4 - u_a1 - 1139 y_a1_proc_1 >= -2578
 c129: u_a1 - u_a4 - 1153 y_a4_proc_2 >= -2579
 c130: u_a1 - u_a4 - 836 y_a4_proc_0 >= -1
 c131: u_a1 - u_a4 - 1102 y_a4_proc_1 >= -2579
 c132: u_a5 - u_a1 - 1010 y_a1_proc_2 >= -1303
 c133: u_a5 - u_a1 - 945 y_a1_proc_0 >= -1303
 c134: u_a1 - u_a5 - 828 y_a5_proc_2 >= -1276
 c135: u_a1 - u_a5 - 1184 y_a5_proc_0 >= -1276
 c136: u_a6 - u_a1 - 1010 y_a1_proc_2 >= -2565
 c137: u_a6 - u_a1 - 945 y_a1_proc_0 >= -1276
 c138: u_a6 - u_a1 - 1139 y_a1_proc_1 >= -2565
 c139: u_a1 - u_a6 - 1223 y_a6_proc_2 >= -2592
 c140: u_a1 - u_a6 - 1132 y_a6_proc_0 >= -1303
 c141: u_a1 - u_a6 - 915 y_a6_proc_1 >= -2592
 c142: u_a7 - u_a1 - 1010 y_a1_proc_2 >= -2579
 c143: u_a7 - u_a1 - 945 y_a1_proc_0 >= -1
 c144: u_a1 - u_a7 - 1139 y_a7_proc_2 >= -2578
 c145: u_a1 - u_a7 - 578 y_a7_proc_0 >= 0
 c146: u_a8 - u_a1 - 1010 y_a1_proc_2 >= -2565
 c147: u_a8 - u_a1 - 945 y_a1_proc_0 >= -1276
 c148: u_a1 - u_a8 - 1240 y_a8_proc_2 >= -2592
 c149: u_a1 - u_a8 - 1091 y_a8_proc_0 >= -1303
 c150: u_a9 - u_a1 - 1010 y_a1_proc_2 >= -1303
 c151: u_a9 - u_a1 - 945 y_a1_proc_0 >= -1303
 c152: u_a9 - u_a1 - 1139 y_a1_proc_1 >= -2592
 c153: u_a1 - u_a9 - 888 y_a9_proc_2 >= -1276
 c154: u_a1 - u_a9 - 982 y_a9_proc_0 >= -1276
 c155: u_a1 - u_a9 - 982 y_a9_proc_1 >= -2565
 c156: u_a3 - u_a2 - 892 y_a2_proc_2 >= -2592
 c157: u_a3 - u_a2 - 1208 y_a2_proc_1 >= -2592
 c158: u_a2 - u_a3 - 1139 y_a3_proc_2 >= -2565
 c159: u_a2 - u_a3 - 1289 y_a3_proc_1 >= -2565
 c160: u_a4 - u_a2 - 892 y_a2_proc_2 >= -2592
 c161: u_a4 - u_a2 - 842 y_a2_proc_3 >= -1303
 c162: u_a4 - u_a2 - 1208 y_a2_proc_1 >= -2592
 c163: u_a2 - u_a4 - 1153 y_a4_proc_2 >= -2565
 c164: u_a2 - u_a4 - 1188 y_a4_proc_3 >= -1276
 c165: u_a2 - u_a4 - 1102 y_a4_proc_1 >= -2565
 c166: u_a5 - u_a2 - 892 y_a2_proc_2 >= -1276
 c167: u_a5 - u_a2 - 842 y_a2_proc_3 >= -1276
 c168: u_a2 - u_a5 - 828 y_a5_proc_2 >= -1303
 c169: u_a2 - u_a5 - 1171 y_a5_proc_3 >= -1303
 c170: u_a6 - u_a2 - 892 y_a2_proc_2 >= -2578
 c171: u_a6 - u_a2 - 842 y_a2_proc_3 >= 0
 c172: u_a6 - u_a2 - 1208 y_a2_proc_1 >= -2578
 c173: u_a2 - u_a6 - 1223 y_a6_proc_2 >= -2579
 c174: u_a2 - u_a6 - 707 y_a6_proc_3 >= -1
 c175: u_a2 - u_a6 - 915 y_a6_proc_1 >= -2579
 c176: u_a7 - u_a2 - 892 y_a2_proc_2 >= -2592
 c177: u_a7 - u_a2 - 842 y_a2_proc_3 >= -1303
 c178: u_a2 - u_a7 - 1139 y_a7_proc_2 >= -2565
 c179: u_a2 - u_a7 - 1214 y_a7_proc_3 >= -1276
 c180: u_a8 - u_a2 - 892 y_a2_proc_2 >= -2579
 c181: u_a8 - u_a2 - 842 y_a2_proc_3 >= -1
 c182: u_a2 - u_a8 - 1240 y_a8_proc_2 >= -2578
 c183: u_a2 - u_a8 - 802 y_a8_proc_3 >= 0
 c184: u_a9 - u_a2 - 892 y_a2_proc_2 >= -1276
 c185: u_a9 - u_a2 - 842 y_a2_proc_3 >= -1276
 c186: u_a9 - u_a2 - 1208 y_a2_proc_1 >= -2565
 c187: u_a2 - u_a9 - 888 y_a9_proc_2 >= -1303
 c188: u_a2 - u_a9 - 806 y_a9_proc_3 >= -1303
 c189: u_a2 - u_a9 - 982 y_a9_proc_1 >= -2592
 c190: u_a4 - u_a3 - 1139 y_a3_proc_2 >= -2579
 c191: u_a4 - u_a3 - 793 y_a3_proc_0 >= -1
 c192: u_a4 - u_a3 - 1289 y_a3_proc_1 >= -2579
 c193: u_a3 - u_a4 - 1153 y_a4_proc_2 >= -2578
 c194: u_a3 - u_a4 - 836 y_a4_proc_0 >= 0
 c195: u_a3 - u_a4 - 1102 y_a4_proc_1 >= -2578
 c196: u_a5 - u_a3 - 1139 y_a3_proc_2 >= -1276
 c197: u_a5 - u_a3 - 793 y_a3_proc_0 >= -1276
 c198: u_a3 - u_a5 - 828 y_a5_proc_2 >= -1303
 c199: u_a3 - u_a5 - 1184 y_a5_proc_0 >= -1303
 c200: u_a6 - u_a3 - 1139 y_a3_proc_2 >= -2592
 c201: u_a6 - u_a3 - 793 y_a3_proc_0 >= -1303
 c202: u_a6 - u_a3 - 1289 y_a3_proc_1 >= -2592
 c203: u_a3 - u_a6 - 1223 y_a6_proc_2 >= -2565
 c204: u_a3 - u_a6 - 1132 y_a6_proc_0 >= -1276
 c205: u_a3 - u_a6 - 915 y_a6_proc_1 >= -2565
 c206: u_a7 - u_a3 - 1139 y_a3_proc_2 >= -2579
 c207: u_a7 - u_a3 - 793 y_a3_proc_0 >= -1
 c208: u_a3 - u_a7 - 1139 y_a7_proc_2 >= -2578
 c209: u_a3 - u_a7 - 578 y_a7_proc_0 >= 0
 c210: u_a8 - u_a3 - 1139 y_a3_proc_2 >= -2592
 c211: u_a8 - u_a3 - 793 y_a3_proc_0 >= -1303
 c212: u_a3 - u_a8 - 1240 y_a8_proc_2 >= -2565
 c213: u_a3 - u_a8 - 1091 y_a8_proc_0 >= -1276
 c214: u_a9 - u_a3 - 1139 y_a3_proc_2 >= -1276
 c215: u_a9 - u_a3 - 793 y_a3_proc_0 >= -1276
 c216: u_a9 - u_a3 - 1289 y_a3_proc_1 >= -2565
 c217: u_a3 - u_a9 - 888 y_a9_proc_2 >= -1303
 c218: u_a3 - u_a9 - 982 y_a9_proc_0 >= -1303
 c219: u_a3 - u_a9 - 982 y_a9_proc_1 >= -2592
 c220: u_a5 - u_a4 - 1153 y_a4_proc_2 >= -1303
 c221: u_a5 - u_a4 - 1188 y_a4_proc_3 >= -2592
 c222: u_a5 - u_a4 - 836 y_a4_proc_0 >= -1303
 c223: u_a4 - u_a5 - 828 y_a5_proc_2 >= -1276
 c224: u_a4 - u_a5 - 1171 y_a5_proc_3 >= -2565
 c225: u_a4 - u_a5 - 1184 y_a5_proc_0 >= -1276
 c226: u_a6 - u_a4 - 1153 y_a4_proc_2 >= -2592
 c227: u_a6 - u_a4 - 1188 y_a4_proc_3 >= -1303
 c228: u_a6 - u_a4 - 836 y_a4_proc_0 >= -1303
 c229: u_a6 - u_a4 - 1102 y_a4_proc_1 >= -2592
 c230: u_a4 - u_a6 - 1223 y_a6_proc_2 >= -2565
 c231: u_a4 - u_a6 - 707 y_a6_proc_3 >= -1276
 c232: u_a4 - u_a6 - 1132 y_a6_proc_0 >= -1276
 c233: u_a4 - u_a6 - 915 y_a6_proc_1 >= -2565
 c234: u_a7 - u_a4 - 1153 y_a4_proc_2 >= -2579
 c235: u_a7 - u_a4 - 1188 y_a4_proc_3 >= -2579
 c236: u_a7 - u_a4 - 836 y_a4_proc_0 >= -1
 c237: u_a4 - u_a7 - 1139 y_a7_proc_2 >= -2578
 c238: u_a4 - u_a7 - 1214 y_a7_proc_3 >= -2578
 c239: u_a4 - u_a7 - 578 y_a7_proc_0 >= 0
 c240: u_a8 - u_a4 - 1153 y_a4_proc_2 >= -2592
 c241: u_a8 - u_a4 - 1188 y_a4_proc_3 >= -1303
 c242: u_a8 - u_a4 - 836 y_a4_proc_0 >= -1303
 c243: u_a4 - u_a8 - 1240 y_a8_proc_2 >= -2565
 c244: u_a4 - u_a8 - 802 y_a8_proc_3 >= -1276
 c245: u_a4 - u_a8 - 1091 y_a8_proc_0 >= -1276
 c246: u_a9 - u_a4 - 1153 y_a4_proc_2 >= -1303
 c247: u_a9 - u_a4 - 1188 y_a4_proc_3 >= -2592
 c248: u_a9 - u_a4 - 836 y_a4_proc_0 >= -1303
 c249: u_a9 - u_a4 - 1102 y_a4_proc_1 >= -2592
 c250: u_a4 - u_a9 - 888 y_a9_proc_2 >= -1276
 c251: u_a4 - u_a9 - 806 y_a9_proc_3 >= -2565
 c252: u_a4 - u_a9 - 982 y_a9_proc_0 >= -1276
 c253: u_a4 - u_a9 - 982 y_a9_proc_1 >= -2565
 c254: u_a6 - u_a5 - 828 y_a5_proc_2 >= -1303
 c255: u_a6 - u_a5 - 1171 y_a5_proc_3 >= -1303
 c256: u_a6 - u_a5 - 1184 y_a5_proc_0 >= -2592
 c257: u_a5 - u_a6 - 1223 y_a6_proc_2 >= -1276
 c258: u_a5 - u_a6 - 707 y_a6_proc_3 >= -1276
 c259: u_a5 - u_a6 - 1132 y_a6_proc_0 >= -2565
 c260: u_a7 - u_a5 - 828 y_a5_proc_2 >= -1276
 c261: u_a7 - u_a5 - 1171 y_a5_proc_3 >= -2565
 c262: u_a7 - u_a5 - 1184 y_a5_proc_0 >= -1276
 c263: u_a5 - u_a7 - 1139 y_a7_proc_2 >= -1303
 c264: u_a5 - u_a7 - 1214 y_a7_proc_3 >= -2592
 c265: u_a5 - u_a7 - 578 y_a7_proc_0 >= -1303
 c266: u_a8 - u_a5 - 828 y_a5_proc_2 >= -1303
 c267: u_a8 - u_a5 - 1171 y_a5_proc_3 >= -1303
 c268: u_a8 - u_a5 - 1184 y_a5_proc_0 >= -2592
 c269: u_a5 - u_a8 - 1240 y_a8_proc_2 >= -1276
 c270: u_a5 - u_a8 - 802 y_a8_proc_3 >= -1276
 c271: u_a5 - u_a8 - 1091 y_a8_proc_0 >= -2565
 c272: u_a9 - u_a5 - 828 y_a5_proc_2 >= 0
 c273: u_a9 - u_a5 - 1171 y_a5_proc_3 >= -2578
 c274: u_a9 - u_a5 - 1184 y_a5_proc_0 >= -2578
 c275: u_a5 - u_a9 - 888 y_a9_proc_2 >= -1
 c276: u_a5 - u_a9 - 806 y_a9_proc_3 >= -2579
 c277: u_a5 - u_a9 - 982 y_a9_proc_0 >= -2579
 c278: u_a7 - u_a6 - 1223 y_a6_proc_2 >= -2592
 c279: u_a7 - u_a6 - 707 y_a6_proc_3 >= -1303
 c280: u_a7 - u_a6 - 1132 y_a6_proc_0 >= -1303
 c281: u_a6 - u_a7 - 1139 y_a7_proc_2 >= -2565
 c282: u_a6 - u_a7 - 1214 y_a7_proc_3 >= -1276
 c283: u_a6 - u_a7 - 578 y_a7_proc_0 >= -1276
 c284: u_a8 - u_a6 - 1223 y_a6_proc_2 >= -2579
 c285: u_a8 - u_a6 - 707 y_a6_proc_3 >= -1
 c286: u_a8 - u_a6 - 1132 y_a6_proc_0 >= -2579
 c287: u_a6 - u_a8 - 1240 y_a8_proc_2 >= -2578
 c288: u_a6 - u_a8 - 802 y_a8_proc_3 >= 0
 c289: u_a6 - u_a8 - 1091 y_a8_proc_0 >= -2578
 c290: u_a9 - u_a6 - 1223 y_a6_proc_2 >= -1303
 c291: u_a9 - u_a6 - 707 y_a6_proc_3 >= -1303
 c292: u_a9 - u_a6 - 1132 y_a6_proc_0 >= -2592
 c293: u_a9 - u_a6 - 915 y_a6_proc_1 >= -2592
 c294: u_a6 - u_a9 - 888 y_a9_proc_2 >= -1276
 c295: u_a6 - u_a9 - 806 y_a9_proc_3 >= -1276
 c296: u_a6 - u_a9 - 982 y_a9_proc_0 >= -2565
 c297: u_a6 - u_a9 - 982 y_a9_proc_1 >= -2565
 c298: u_a8 - u_a7 - 1139 y_a7_proc_2 >= -2592
 c299: u_a8 - u_a7 - 1214 y_a7_proc_3 >= -1303
 c300: u_a8 - u_a7 - 578 y_a7_proc_0 >= -1303
 c301: u_a7 - u_a8 - 1240 y_a8_proc_2 >= -2565
 c302: u_a7 - u_a8 - 802 y_a8_proc_3 >= -1276
 c303: u_a7 - u_a8 - 1091 y_a8_proc_0 >= -1276
 c304: u_a9 - u_a7 - 1139 y_a7_proc_2 >= -1303
 c305: u_a9 - u_a7 - 1214 y_a7_proc_3 >= -2592
 c306: u_a9 - u_a7 - 578 y_a7_proc_0 >= -1303
 c307: u_a7 - u_a9 - 888 y_a9_proc_2 >= -1276
 c308: u_a7 - u_a9 - 806 y_a9_proc_3 >= -2565
 c309: u_a7 - u_a9 - 982 y_a9_proc_0 >= -1276
 c310: u_a9 - u_a8 - 1240 y_a8_proc_2 >= -1303
 c311: u_a9 - u_a8 - 802 y_a8_proc_3 >= -1303
 c312: u_a9 - u_a8 - 1091 y_a8_proc_0 >= -2592
 c313: u_a8 - u_a9 - 888 y_a9_proc_2 >= -1276
 c314: u_a8 - u_a9 - 806 y_a9_proc_3 >= -1276
 c315: u_a8 - u_a9 - 982 y_a9_proc_0 >= -2565

Bounds
End
