benchmark/results/graph__10-1000-0.10-04_7/graph__10-1000-0.10-04_7_QuintonOs_Benders_primal_sub.txt
solution for: Quinton Bounded Benders_primal_sub
objective: 0.000217628
status: OPTIMAL_SOLUTION(2)
u_a0=1.252
u_a1=0.711
u_a2=0.527
u_a3=1.355
u_a4=1.070
u_a6=0.916
u_a7=0.548
u_a8=0.180
u_a9=0.355
tau=0.000
y_a0_proc_2=0.000
y_a1_proc_0=0.000
y_a2_proc_3=0.000
y_a3_proc_0=0.000
y_a4_proc_0=0.000
y_a5_proc_2=0.000
y_a6_proc_3=0.000
y_a7_proc_0=0.000
y_a8_proc_3=0.000
y_a9_proc_2=0.000
